outputs/case_36.model.txt
internal_control_change_notified = False
internal_control_change_completed_within_deadline = False
exception_37_1_applied = False
accepted_same_account_offsetting_trades = False
exception_by_authority_9 = False
set_fixed_place_outside_office_for_contract_or_settlement = False
exception_by_authority_12 = False
accepted_non_self_account_opening = False
exception_by_tripartite_contract_13 = True
accepted_non_authorized_proxy_trading = True
exception_for_underwriting_15 = False
recommended_specific_stocks_to_public = False
exception_credit_transaction_offset = False
exception_same_day_cash_offset = False
accepted_offsetting_trades_by_responsible_person = False
exception_legal_agent_17 = False
accepted_proxy_trading_by_responsible_person = False
exception_by_authority_19 = False
accepted_non_self_account_opening_by_responsible_person = False
exception_by_tripartite_contract_20 = True
accepted_non_authorized_proxy_trading_by_responsible_person = True
internal_control_updated = True
prohibited_behavior_10 = True
responsible_person_prohibited_13 = True
responsible_person_prohibited_9 = True
held_client_assets_on_behalf = False
prohibited_behavior_12 = True
used_insider_info_for_speculation = False
prohibited_behavior_11 = True
violated_other_securities_regulations = False
responsible_person_prohibited_7 = True
had_loan_or_securities_lending_with_client = False
prohibited_behavior_22 = True
accepted_proxy_trading_by_internal_personnel = False
business_according_to_articles = True
responsible_person_prohibited_4 = True
responsible_person_prohibited_23 = True
internal_control_established = True
prohibited_behavior_7 = True
responsible_person_prohibited_3 = True
prohibited_behavior_21 = True
violated_settlement_obligation = False
provided_price_movement_prediction_by_responsible_person = False
prohibited_behavior_9 = True
responsible_person_prohibited_1 = True
misappropriated_or_held_client_assets = False
prohibited_behavior_14 = True
responsible_person_prohibited_6 = True
responsible_person_prohibited_8 = True
prohibited_behavior_17 = True
prohibited_behavior_19 = True
responsible_person_prohibited_11 = True
solicited_unapproved_securities_or_derivatives = False
prohibited_behavior_5 = True
accepted_trading_with_insider_or_manipulation_intent_by_responsible_person = False
accepted_client_without_trust_contract = False
accepted_full_discretionary_trust_by_responsible_person = False
used_non_securities_personnel_or_paid_unreasonable_commission = False
provided_account_for_trading = False
unauthorized_disclosure_of_client_info = False
responsible_person_prohibited_22 = True
used_client_name_or_account_for_trading = False
responsible_person_prohibited_2 = True
responsible_person_prohibited_16 = True
set_fixed_place_outside_office_for_trading = False
used_others_or_relatives_name_for_client_trading = False
responsible_person_prohibited_12 = True
business_compliance = True
prohibited_behavior_16 = True
business_according_to_internal_control = True
prohibited_behavior_2 = True
accepted_proxy_trading_by_internal_personnel_by_responsible_person = False
had_undue_benefit_agreement = False
provided_unapproved_financing_or_securities = False
unauthorized_disclosure_by_responsible_person = False
prohibited_behavior_15 = True
prohibited_behavior_4 = True
prohibited_behavior_20 = True
accepted_trading_with_insider_or_manipulation_intent = False
prohibited_behavior_3 = True
prohibited_behavior_6 = True
accepted_client_without_trust_contract_by_responsible_person = False
accepted_full_discretionary_trust = False
misappropriated_client_assets = False
prohibited_behavior_18 = True
responsible_person_prohibited_18 = True
violated_other_securities_regulations_by_responsible_person = False
shared_trading_loss_or_profit = False
used_client_name_or_account_by_responsible_person = False
guaranteed_profit_or_shared_benefit = False
provided_price_movement_prediction = False
prohibited_behavior_8 = True
responsible_person_prohibited_20 = True
responsible_person_prohibited_10 = True
executed_business_with_honesty_and_credit = True
responsible_person_prohibited_24 = True
responsible_person_prohibited_5 = True
provided_specific_benefit_or_loss_burden = False
responsible_person_prohibited_19 = True
had_concealment_or_fraud_in_underwriting_or_trading = False
responsible_person_prohibited_21 = True
executed_trades_according_to_client_instructions = False
responsible_person_prohibited_14 = True
prohibited_behavior_13 = True
responsible_person_prohibited_17 = True
penalty = False
provided_false_or_fraudulent_information = False
accepted_different_account_offsetting_trades = False
prohibited_behavior_1 = True
responsible_person_prohibited_15 = True
business_according_to_law = True
internal_control_compliant = True
responsible_person_honest = True
self_counterparty_trading = False